n_res = 4;
rcap = [18, 9, 45, 62];
rtype = [1, 1, 2, 2];
n_tasks = 10;
modes = [ {1, 2, 3}, {4, 5, 6}, {7, 8, 9}, {10, 11, 12}, {13, 14, 15}, {16, 17, 18}, {19, 20, 21}, {22, 23, 24}, {25, 26, 27}, {28, 29, 30} ];
succ = [ {10}, {7, 9}, {4, 6}, {5, 8}, {9, 10}, {7, 8}, {10}, {}, {}, {} ];
n_opt = 30;
dur = [3, 3, 4, 4, 5, 7, 4, 5, 9, 5, 6, 9, 2, 4, 4, 2, 4, 8, 4, 5, 9, 1, 1, 2, 7, 7, 8, 4, 7, 8];
rreq = [|  0,  3,  2, 10, 10, 10,  0,  9,  0,  9,  8,  7,  5,  2,  2,  8,  0,  7,  0,  9,  8,  5,  0,  0,  7,  7,  6,  0,  7,  5
        |  9,  0,  0,  0,  0,  0,  4,  0,  3,  0,  0,  0,  0,  0,  0,  0,  6,  0,  3,  0,  0,  0,  7,  6,  0,  0,  0,  5,  0,  0
        |  5,  5,  0,  8,  0,  0,  0,  6,  6,  5,  0,  0,  0,  0,  3,  4,  0,  3,  0,  3,  2,  0,  0,  5,  0,  6,  3,  0,  0,  0
        |  0,  0,  6,  0, 10,  9,  6,  0,  0,  0,  8,  8,  6,  1,  0,  0,  6,  0,  5,  0,  0,  2,  3,  0,  2,  0,  0, 10,  9,  8 |];
